p cnf 250 375
1 97 0
1 234 0
1 195 0
2 28 0
2 13 0
2 101 0
3 169 0
3 200 0
3 19 0
4 99 0
4 71 0
4 114 0
5 56 0
5 110 0
5 104 0
6 103 0
6 76 0
6 51 0
7 123 0
7 68 0
7 133 0
8 78 0
8 215 0
8 59 0
9 179 0
9 228 0
9 37 0
10 168 0
10 57 0
10 89 0
11 121 0
11 188 0
11 23 0
12 86 0
12 150 0
12 142 0
13 122 0
13 157 0
14 202 0
14 120 0
14 25 0
15 117 0
15 126 0
15 182 0
16 240 0
16 198 0
16 192 0
17 95 0
17 211 0
17 24 0
18 50 0
18 149 0
18 173 0
19 74 0
19 168 0
20 44 0
20 134 0
20 111 0
21 77 0
21 105 0
21 59 0
22 159 0
22 138 0
22 146 0
23 25 0
23 156 0
24 247 0
24 190 0
25 195 0
26 42 0
26 93 0
26 141 0
27 52 0
27 143 0
27 218 0
28 233 0
28 203 0
29 134 0
29 69 0
29 93 0
30 109 0
30 197 0
30 221 0
31 80 0
31 36 0
31 250 0
32 55 0
32 84 0
32 135 0
33 223 0
33 45 0
33 113 0
34 167 0
34 163 0
34 70 0
35 236 0
35 242 0
35 72 0
36 50 0
36 73 0
37 227 0
37 177 0
38 89 0
38 167 0
38 92 0
39 208 0
39 79 0
39 163 0
40 248 0
40 232 0
40 85 0
41 196 0
41 156 0
41 184 0
42 180 0
42 216 0
43 225 0
43 156 0
43 169 0
44 87 0
44 147 0
45 49 0
45 177 0
46 245 0
46 240 0
46 60 0
47 128 0
47 210 0
47 199 0
48 60 0
48 222 0
48 132 0
49 180 0
49 121 0
50 53 0
51 246 0
51 116 0
52 231 0
52 195 0
53 153 0
53 162 0
54 169 0
54 78 0
54 92 0
55 242 0
55 179 0
56 112 0
56 151 0
57 62 0
57 174 0
58 106 0
58 207 0
58 64 0
59 110 0
60 158 0
61 82 0
61 135 0
61 207 0
62 176 0
62 206 0
63 108 0
63 244 0
63 165 0
64 171 0
64 198 0
65 130 0
65 133 0
65 131 0
66 98 0
66 217 0
66 103 0
67 172 0
67 70 0
67 84 0
68 71 0
68 69 0
69 190 0
70 127 0
71 242 0
72 120 0
72 137 0
73 214 0
73 218 0
74 165 0
74 226 0
75 226 0
75 164 0
75 211 0
76 155 0
76 158 0
77 104 0
77 136 0
78 143 0
79 161 0
79 96 0
80 186 0
80 224 0
81 143 0
81 201 0
81 236 0
82 210 0
82 180 0
83 125 0
83 194 0
83 112 0
84 158 0
85 238 0
85 235 0
86 221 0
86 175 0
87 198 0
87 100 0
88 171 0
88 187 0
88 220 0
89 155 0
90 114 0
90 164 0
90 213 0
91 217 0
91 248 0
91 213 0
92 135 0
93 209 0
94 107 0
94 166 0
94 226 0
95 124 0
95 247 0
96 231 0
96 212 0
97 187 0
97 141 0
98 239 0
98 164 0
99 136 0
99 248 0
100 182 0
100 121 0
101 217 0
101 131 0
102 179 0
102 183 0
102 154 0
103 240 0
104 201 0
105 147 0
105 222 0
106 159 0
106 194 0
107 191 0
107 115 0
108 119 0
108 175 0
109 115 0
109 224 0
110 209 0
111 222 0
111 197 0
112 152 0
113 185 0
113 146 0
114 225 0
115 250 0
116 186 0
116 120 0
117 150 0
117 191 0
118 189 0
118 249 0
118 190 0
119 138 0
119 188 0
122 234 0
122 233 0
123 209 0
123 160 0
124 223 0
124 166 0
125 244 0
125 219 0
126 176 0
126 219 0
127 149 0
127 189 0
128 130 0
128 147 0
129 132 0
129 230 0
129 234 0
130 162 0
131 140 0
132 228 0
133 161 0
134 145 0
136 233 0
137 229 0
137 174 0
138 154 0
139 238 0
139 166 0
139 178 0
140 174 0
140 244 0
141 231 0
142 216 0
142 203 0
144 170 0
144 206 0
144 216 0
145 235 0
145 165 0
146 176 0
148 167 0
148 177 0
148 183 0
149 161 0
150 229 0
151 227 0
151 220 0
152 184 0
152 215 0
153 220 0
153 205 0
154 229 0
155 237 0
157 173 0
157 205 0
159 249 0
160 232 0
160 239 0
162 163 0
168 203 0
170 214 0
170 187 0
171 228 0
172 250 0
172 212 0
173 184 0
175 237 0
178 218 0
178 201 0
181 243 0
181 224 0
181 206 0
182 199 0
183 211 0
185 193 0
185 202 0
186 191 0
188 208 0
189 241 0
192 197 0
192 247 0
193 200 0
193 215 0
194 214 0
196 213 0
196 236 0
199 235 0
200 204 0
202 243 0
204 241 0
204 205 0
207 210 0
208 246 0
212 232 0
219 249 0
221 245 0
223 243 0
225 245 0
227 241 0
230 239 0
230 246 0
237 238 0
g -152